Model 15 9 15 10
5 1 6 6 6 7 7 7 7 7 7 7 7 7 7 
1 5 10 1
0 0
1 6 10 1
0 0
1 7 10 1
0 0
1 8 10 1
0 0
1 9 10 1
0 0
1 10 10 1
0 0
1 11 10 1
0 0
1 12 10 1
0 0
1 13 10 1
0 0
1 14 10 1
0 0
5 0 5 6 7 8 -1 wsum hard 10 == 8
5 5 1 9 10 11 -1 wsum hard 10 == 0
5 6 9 2 12 13 -1 wsum hard 10 == 8
5 7 10 12 3 14 -1 wsum hard 10 == 8
5 8 11 13 14 4 -1 wsum hard 10 == 8
